p cnf 430 1488
-191 32 0
-191 10 0
-191 70 0
-191 -171 0
-191 -29 0
191 -32 -10 -70 171 29 0
-192 -46 0
-192 189 0
-192 -108 0
-192 -139 0
-192 -72 0
192 46 -189 108 139 72 0
-193 -87 0
-193 -22 0
-193 100 0
-193 39 0
-193 -157 0
193 87 22 -100 -39 157 0
-194 165 0
-194 38 0
-194 169 0
-194 -63 0
-194 36 0
194 -165 -38 -169 63 -36 0
-195 -99 0
-195 66 0
-195 114 0
-195 45 0
-195 -119 0
195 99 -66 -114 -45 119 0
191 192 193 194 195 0
-196 179 0
-196 146 0
-196 183 0
-196 -107 0
-196 77 0
196 -179 -146 -183 107 -77 0
-197 15 0
-197 -1 0
-197 138 0
-197 -22 0
-197 101 0
197 -15 1 -138 22 -101 0
-198 56 0
-198 112 0
-198 128 0
-198 6 0
-198 -9 0
198 -56 -112 -128 -6 9 0
-199 -12 0
-199 28 0
-199 67 0
-199 36 0
-199 31 0
199 12 -28 -67 -36 -31 0
-200 53 0
-200 -50 0
-200 -56 0
-200 118 0
-200 123 0
200 -53 50 56 -118 -123 0
196 197 198 199 200 0
-201 -124 0
-201 -66 0
-201 135 0
-201 -139 0
-201 -133 0
201 124 66 -135 139 133 0
-202 160 0
-202 -96 0
-202 181 0
-202 24 0
-202 -75 0
202 -160 96 -181 -24 75 0
-203 -28 0
-203 -179 0
-203 109 0
-203 10 0
-203 38 0
203 28 179 -109 -10 -38 0
-204 -183 0
-204 -149 0
-204 -74 0
-204 -91 0
-204 144 0
204 183 149 74 91 -144 0
-205 65 0
-205 -138 0
-205 -130 0
-205 -28 0
-205 122 0
205 -65 138 130 28 -122 0
201 202 203 204 205 0
-206 102 0
-206 -36 0
-206 -154 0
-206 12 0
-206 -54 0
206 -102 36 154 -12 54 0
-207 -147 0
-207 5 0
-207 -70 0
-207 -149 0
-207 20 0
207 147 -5 70 149 -20 0
-208 20 0
-208 179 0
-208 -16 0
-208 55 0
-208 -155 0
208 -20 -179 16 -55 155 0
-209 -126 0
-209 65 0
-209 21 0
-209 -41 0
-209 -1 0
209 126 -65 -21 41 1 0
-210 9 0
-210 -92 0
-210 -168 0
-210 51 0
-210 -182 0
210 -9 92 168 -51 182 0
206 207 208 209 210 0
-211 -122 0
-211 -22 0
-211 178 0
-211 -31 0
-211 16 0
211 122 22 -178 31 -16 0
-212 -166 0
-212 50 0
-212 27 0
-212 -70 0
-212 47 0
212 166 -50 -27 70 -47 0
-213 -126 0
-213 143 0
-213 -122 0
-213 -65 0
-213 -63 0
213 126 -143 122 65 63 0
-214 -131 0
-214 -72 0
-214 -95 0
-214 32 0
-214 -3 0
214 131 72 95 -32 3 0
-215 -85 0
-215 -146 0
-215 -128 0
-215 -79 0
-215 -121 0
215 85 146 128 79 121 0
211 212 213 214 215 0
-216 76 0
-216 188 0
-216 62 0
-216 -12 0
-216 -190 0
216 -76 -188 -62 12 190 0
-217 133 0
-217 -5 0
-217 -59 0
-217 -49 0
-217 152 0
217 -133 5 59 49 -152 0
-218 108 0
-218 -170 0
-218 114 0
-218 -71 0
-218 -181 0
218 -108 170 -114 71 181 0
-219 -47 0
-219 51 0
-219 139 0
-219 144 0
-219 -143 0
219 47 -51 -139 -144 143 0
-220 -124 0
-220 -157 0
-220 69 0
-220 -111 0
-220 -57 0
220 124 157 -69 111 57 0
216 217 218 219 220 0
-221 154 0
-221 99 0
-221 -183 0
-221 -3 0
-221 93 0
221 -154 -99 183 3 -93 0
-222 92 0
-222 29 0
-222 149 0
-222 107 0
-222 -46 0
222 -92 -29 -149 -107 46 0
-223 -171 0
-223 -128 0
-223 29 0
-223 35 0
-223 119 0
223 171 128 -29 -35 -119 0
-224 -28 0
-224 15 0
-224 10 0
-224 142 0
-224 32 0
224 28 -15 -10 -142 -32 0
-225 96 0
-225 -114 0
-225 73 0
-225 -160 0
-225 -2 0
225 -96 114 -73 160 2 0
221 222 223 224 225 0
-226 -74 0
-226 -83 0
-226 -5 0
-226 39 0
-226 -133 0
226 74 83 5 -39 133 0
-227 -23 0
-227 -161 0
-227 -155 0
-227 121 0
-227 -14 0
227 23 161 155 -121 14 0
-228 135 0
-228 -40 0
-228 143 0
-228 -82 0
-228 61 0
228 -135 40 -143 82 -61 0
-229 -66 0
-229 96 0
-229 148 0
-229 -42 0
-229 103 0
229 66 -96 -148 42 -103 0
-230 5 0
-230 -86 0
-230 -113 0
-230 -52 0
-230 -27 0
230 -5 86 113 52 27 0
226 227 228 229 230 0
-231 110 0
-231 -49 0
-231 -74 0
-231 75 0
-231 65 0
231 -110 49 74 -75 -65 0
-232 -115 0
-232 -55 0
-232 -71 0
-232 145 0
-232 -38 0
232 115 55 71 -145 38 0
-233 122 0
-233 49 0
-233 -98 0
-233 -100 0
-233 -75 0
233 -122 -49 98 100 75 0
-234 -148 0
-234 -75 0
-234 91 0
-234 -111 0
-234 60 0
234 148 75 -91 111 -60 0
-235 34 0
-235 -179 0
-235 133 0
-235 11 0
-235 154 0
235 -34 179 -133 -11 -154 0
231 232 233 234 235 0
-236 -135 0
-236 -171 0
-236 180 0
-236 -56 0
-236 -24 0
236 135 171 -180 56 24 0
-237 97 0
-237 -93 0
-237 121 0
-237 4 0
-237 176 0
237 -97 93 -121 -4 -176 0
-238 -75 0
-238 -67 0
-238 -132 0
-238 81 0
-238 82 0
238 75 67 132 -81 -82 0
-239 -141 0
-239 -70 0
-239 36 0
-239 -120 0
-239 60 0
239 141 70 -36 120 -60 0
-240 -121 0
-240 -131 0
-240 179 0
-240 -150 0
-240 56 0
240 121 131 -179 150 -56 0
236 237 238 239 240 0
-241 96 0
-241 -89 0
-241 121 0
-241 -11 0
-241 -108 0
241 -96 89 -121 11 108 0
-242 -42 0
-242 -20 0
-242 147 0
-242 124 0
-242 -151 0
242 42 20 -147 -124 151 0
-243 -37 0
-243 -151 0
-243 -118 0
-243 9 0
-243 79 0
243 37 151 118 -9 -79 0
-244 50 0
-244 136 0
-244 153 0
-244 166 0
-244 -143 0
244 -50 -136 -153 -166 143 0
-245 -108 0
-245 -3 0
-245 71 0
-245 -9 0
-245 -163 0
245 108 3 -71 9 163 0
241 242 243 244 245 0
-246 134 0
-246 149 0
-246 -116 0
-246 7 0
-246 -75 0
246 -134 -149 116 -7 75 0
-247 -17 0
-247 102 0
-247 107 0
-247 161 0
-247 54 0
247 17 -102 -107 -161 -54 0
-248 21 0
-248 -144 0
-248 -75 0
-248 -110 0
-248 158 0
248 -21 144 75 110 -158 0
-249 -22 0
-249 62 0
-249 -128 0
-249 172 0
-249 -91 0
249 22 -62 128 -172 91 0
-250 -22 0
-250 65 0
-250 152 0
-250 -28 0
-250 6 0
250 22 -65 -152 28 -6 0
246 247 248 249 250 0
-251 173 0
-251 -52 0
-251 -171 0
-251 -5 0
-251 -145 0
251 -173 52 171 5 145 0
-252 58 0
-252 -9 0
-252 187 0
-252 136 0
-252 -3 0
252 -58 9 -187 -136 3 0
-253 119 0
-253 125 0
-253 -16 0
-253 -30 0
-253 88 0
253 -119 -125 16 30 -88 0
-254 -155 0
-254 143 0
-254 -121 0
-254 4 0
-254 82 0
254 155 -143 121 -4 -82 0
-255 94 0
-255 -130 0
-255 -84 0
-255 -41 0
-255 -119 0
255 -94 130 84 41 119 0
251 252 253 254 255 0
-256 -44 0
-256 107 0
-256 176 0
-256 88 0
-256 179 0
256 44 -107 -176 -88 -179 0
-257 -35 0
-257 140 0
-257 -32 0
-257 -108 0
-257 40 0
257 35 -140 32 108 -40 0
-258 23 0
-258 181 0
-258 -134 0
-258 -17 0
-258 75 0
258 -23 -181 134 17 -75 0
-259 -13 0
-259 108 0
-259 22 0
-259 174 0
-259 56 0
259 13 -108 -22 -174 -56 0
-260 -42 0
-260 -180 0
-260 -30 0
-260 142 0
-260 21 0
260 42 180 30 -142 -21 0
256 257 258 259 260 0
-261 150 0
-261 -34 0
-261 157 0
-261 1 0
-261 136 0
261 -150 34 -157 -1 -136 0
-262 -188 0
-262 -100 0
-262 -90 0
-262 46 0
-262 38 0
262 188 100 90 -46 -38 0
-263 53 0
-263 12 0
-263 143 0
-263 -65 0
-263 122 0
263 -53 -12 -143 65 -122 0
-264 47 0
-264 -161 0
-264 16 0
-264 33 0
-264 -151 0
264 -47 161 -16 -33 151 0
-265 164 0
-265 18 0
-265 -15 0
-265 -138 0
-265 51 0
265 -164 -18 15 138 -51 0
261 262 263 264 265 0
-266 -26 0
-266 -162 0
-266 95 0
-266 159 0
-266 93 0
266 26 162 -95 -159 -93 0
-267 -125 0
-267 -181 0
-267 46 0
-267 49 0
-267 140 0
267 125 181 -46 -49 -140 0
-268 149 0
-268 -166 0
-268 82 0
-268 50 0
-268 167 0
268 -149 166 -82 -50 -167 0
-269 -51 0
-269 -126 0
-269 -11 0
-269 185 0
-269 161 0
269 51 126 11 -185 -161 0
-270 -147 0
-270 160 0
-270 -12 0
-270 -190 0
-270 123 0
270 147 -160 12 190 -123 0
266 267 268 269 270 0
-271 159 0
-271 59 0
-271 153 0
-271 -164 0
-271 131 0
271 -159 -59 -153 164 -131 0
-272 -184 0
-272 16 0
-272 -138 0
-272 -156 0
-272 -143 0
272 184 -16 138 156 143 0
-273 165 0
-273 -42 0
-273 -183 0
-273 105 0
-273 27 0
273 -165 42 183 -105 -27 0
-274 41 0
-274 -21 0
-274 -12 0
-274 95 0
-274 -87 0
274 -41 21 12 -95 87 0
-275 -3 0
-275 166 0
-275 -104 0
-275 -10 0
-275 -73 0
275 3 -166 104 10 73 0
271 272 273 274 275 0
-276 153 0
-276 21 0
-276 -70 0
-276 -131 0
-276 -33 0
276 -153 -21 70 131 33 0
-277 -155 0
-277 -30 0
-277 81 0
-277 103 0
-277 105 0
277 155 30 -81 -103 -105 0
-278 -55 0
-278 -96 0
-278 45 0
-278 -40 0
-278 -38 0
278 55 96 -45 40 38 0
-279 189 0
-279 52 0
-279 134 0
-279 159 0
-279 14 0
279 -189 -52 -134 -159 -14 0
-280 -76 0
-280 -74 0
-280 -35 0
-280 153 0
-280 174 0
280 76 74 35 -153 -174 0
276 277 278 279 280 0
-281 125 0
-281 140 0
-281 74 0
-281 44 0
-281 -18 0
281 -125 -140 -74 -44 18 0
-282 104 0
-282 -140 0
-282 1 0
-282 162 0
-282 -155 0
282 -104 140 -1 -162 155 0
-283 -30 0
-283 -77 0
-283 13 0
-283 135 0
-283 141 0
283 30 77 -13 -135 -141 0
-284 54 0
-284 -58 0
-284 94 0
-284 -109 0
-284 -44 0
284 -54 58 -94 109 44 0
-285 104 0
-285 100 0
-285 170 0
-285 39 0
-285 23 0
285 -104 -100 -170 -39 -23 0
281 282 283 284 285 0
-286 -24 0
-286 -155 0
-286 172 0
-286 -46 0
-286 108 0
286 24 155 -172 46 -108 0
-287 -67 0
-287 -86 0
-287 61 0
-287 46 0
-287 -113 0
287 67 86 -61 -46 113 0
-288 -151 0
-288 -137 0
-288 -63 0
-288 158 0
-288 115 0
288 151 137 63 -158 -115 0
-289 128 0
-289 -68 0
-289 142 0
-289 -127 0
-289 15 0
289 -128 68 -142 127 -15 0
-290 -33 0
-290 -112 0
-290 -129 0
-290 78 0
-290 -16 0
290 33 112 129 -78 16 0
286 287 288 289 290 0
-291 131 0
-291 134 0
-291 -88 0
-291 -183 0
-291 162 0
291 -131 -134 88 183 -162 0
-292 -137 0
-292 174 0
-292 -6 0
-292 73 0
-292 12 0
292 137 -174 6 -73 -12 0
-293 -125 0
-293 130 0
-293 -104 0
-293 142 0
-293 160 0
293 125 -130 104 -142 -160 0
-294 85 0
-294 -56 0
-294 135 0
-294 -171 0
-294 96 0
294 -85 56 -135 171 -96 0
-295 -34 0
-295 154 0
-295 -75 0
-295 -146 0
-295 -56 0
295 34 -154 75 146 56 0
291 292 293 294 295 0
-296 -175 0
-296 85 0
-296 -131 0
-296 27 0
-296 -34 0
296 175 -85 131 -27 34 0
-297 58 0
-297 -170 0
-297 61 0
-297 -150 0
-297 -93 0
297 -58 170 -61 150 93 0
-298 180 0
-298 162 0
-298 -129 0
-298 -158 0
-298 -14 0
298 -180 -162 129 158 14 0
-299 -166 0
-299 27 0
-299 74 0
-299 49 0
-299 134 0
299 166 -27 -74 -49 -134 0
-300 -134 0
-300 -65 0
-300 -79 0
-300 181 0
-300 141 0
300 134 65 79 -181 -141 0
296 297 298 299 300 0
-301 -155 0
-301 164 0
-301 81 0
-301 -7 0
-301 -156 0
301 155 -164 -81 7 156 0
-302 -100 0
-302 78 0
-302 147 0
-302 187 0
-302 -182 0
302 100 -78 -147 -187 182 0
-303 -63 0
-303 52 0
-303 23 0
-303 51 0
-303 -151 0
303 63 -52 -23 -51 151 0
-304 -5 0
-304 -101 0
-304 -135 0
-304 -138 0
-304 40 0
304 5 101 135 138 -40 0
-305 33 0
-305 161 0
-305 -31 0
-305 -154 0
-305 -176 0
305 -33 -161 31 154 176 0
301 302 303 304 305 0
-306 -1 0
-306 -68 0
-306 67 0
-306 -7 0
-306 -88 0
306 1 68 -67 7 88 0
-307 167 0
-307 -151 0
-307 184 0
-307 181 0
-307 37 0
307 -167 151 -184 -181 -37 0
-308 -56 0
-308 169 0
-308 -120 0
-308 -70 0
-308 -80 0
308 56 -169 120 70 80 0
-309 -71 0
-309 -130 0
-309 -127 0
-309 -98 0
-309 14 0
309 71 130 127 98 -14 0
-310 69 0
-310 -156 0
-310 11 0
-310 24 0
-310 168 0
310 -69 156 -11 -24 -168 0
306 307 308 309 310 0
-311 179 0
-311 181 0
-311 144 0
-311 76 0
-311 -123 0
311 -179 -181 -144 -76 123 0
-312 -100 0
-312 116 0
-312 -98 0
-312 135 0
-312 -109 0
312 100 -116 98 -135 109 0
-313 92 0
-313 -9 0
-313 186 0
-313 -29 0
-313 2 0
313 -92 9 -186 29 -2 0
-314 -48 0
-314 -161 0
-314 -16 0
-314 -25 0
-314 59 0
314 48 161 16 25 -59 0
-315 120 0
-315 96 0
-315 -88 0
-315 -172 0
-315 -109 0
315 -120 -96 88 172 109 0
311 312 313 314 315 0
-316 -102 0
-316 16 0
-316 -29 0
-316 43 0
-316 -139 0
316 102 -16 29 -43 139 0
-317 -190 0
-317 -117 0
-317 -18 0
-317 -33 0
-317 24 0
317 190 117 18 33 -24 0
-318 164 0
-318 -143 0
-318 130 0
-318 129 0
-318 97 0
318 -164 143 -130 -129 -97 0
-319 -52 0
-319 -101 0
-319 -76 0
-319 -145 0
-319 180 0
319 52 101 76 145 -180 0
-320 72 0
-320 10 0
-320 -106 0
-320 118 0
-320 -24 0
320 -72 -10 106 -118 24 0
316 317 318 319 320 0
-321 93 0
-321 -182 0
-321 -105 0
-321 22 0
-321 -99 0
321 -93 182 105 -22 99 0
-322 41 0
-322 174 0
-322 -16 0
-322 -170 0
-322 20 0
322 -41 -174 16 170 -20 0
-323 -128 0
-323 124 0
-323 70 0
-323 -38 0
-323 -19 0
323 128 -124 -70 38 19 0
-324 77 0
-324 -178 0
-324 187 0
-324 146 0
-324 -28 0
324 -77 178 -187 -146 28 0
-325 -6 0
-325 -36 0
-325 166 0
-325 97 0
-325 -92 0
325 6 36 -166 -97 92 0
321 322 323 324 325 0
-326 3 0
-326 -24 0
-326 18 0
-326 -152 0
-326 -160 0
326 -3 24 -18 152 160 0
-327 -178 0
-327 164 0
-327 2 0
-327 184 0
-327 50 0
327 178 -164 -2 -184 -50 0
-328 164 0
-328 6 0
-328 -136 0
-328 169 0
-328 -20 0
328 -164 -6 136 -169 20 0
-329 -79 0
-329 41 0
-329 134 0
-329 -36 0
-329 126 0
329 79 -41 -134 36 -126 0
-330 -70 0
-330 -132 0
-330 102 0
-330 -95 0
-330 144 0
330 70 132 -102 95 -144 0
326 327 328 329 330 0
-331 -177 0
-331 -165 0
-331 63 0
-331 140 0
-331 184 0
331 177 165 -63 -140 -184 0
-332 84 0
-332 -41 0
-332 4 0
-332 141 0
-332 100 0
332 -84 41 -4 -141 -100 0
-333 -133 0
-333 161 0
-333 16 0
-333 -115 0
-333 61 0
333 133 -161 -16 115 -61 0
-334 -40 0
-334 -176 0
-334 155 0
-334 -20 0
-334 23 0
334 40 176 -155 20 -23 0
-335 -31 0
-335 91 0
-335 66 0
-335 -49 0
-335 -136 0
335 31 -91 -66 49 136 0
331 332 333 334 335 0
-336 84 0
-336 -165 0
-336 -190 0
-336 59 0
-336 -43 0
336 -84 165 190 -59 43 0
-337 -62 0
-337 -81 0
-337 -4 0
-337 30 0
-337 -68 0
337 62 81 4 -30 68 0
-338 -27 0
-338 -54 0
-338 -95 0
-338 53 0
-338 69 0
338 27 54 95 -53 -69 0
-339 127 0
-339 -80 0
-339 -64 0
-339 -70 0
-339 -39 0
339 -127 80 64 70 39 0
-340 -14 0
-340 -29 0
-340 -83 0
-340 -138 0
-340 107 0
340 14 29 83 138 -107 0
336 337 338 339 340 0
-341 25 0
-341 -112 0
-341 -69 0
-341 44 0
-341 56 0
341 -25 112 69 -44 -56 0
-342 -99 0
-342 -75 0
-342 88 0
-342 -85 0
-342 116 0
342 99 75 -88 85 -116 0
-343 -77 0
-343 144 0
-343 -184 0
-343 -91 0
-343 -188 0
343 77 -144 184 91 188 0
-344 -136 0
-344 -146 0
-344 118 0
-344 -25 0
-344 -12 0
344 136 146 -118 25 12 0
-345 163 0
-345 -108 0
-345 -19 0
-345 39 0
-345 -126 0
345 -163 108 19 -39 126 0
341 342 343 344 345 0
-346 133 0
-346 -112 0
-346 -101 0
-346 29 0
-346 -134 0
346 -133 112 101 -29 134 0
-347 111 0
-347 -29 0
-347 82 0
-347 176 0
-347 150 0
347 -111 29 -82 -176 -150 0
-348 -188 0
-348 189 0
-348 179 0
-348 125 0
-348 87 0
348 188 -189 -179 -125 -87 0
-349 113 0
-349 170 0
-349 124 0
-349 -39 0
-349 -27 0
349 -113 -170 -124 39 27 0
-350 89 0
-350 68 0
-350 -188 0
-350 -138 0
-350 151 0
350 -89 -68 188 138 -151 0
346 347 348 349 350 0
-351 26 0
-351 136 0
-351 160 0
-351 44 0
-351 -76 0
351 -26 -136 -160 -44 76 0
-352 102 0
-352 -17 0
-352 115 0
-352 -68 0
-352 95 0
352 -102 17 -115 68 -95 0
-353 -84 0
-353 -21 0
-353 176 0
-353 -57 0
-353 -82 0
353 84 21 -176 57 82 0
-354 53 0
-354 22 0
-354 76 0
-354 -154 0
-354 16 0
354 -53 -22 -76 154 -16 0
-355 105 0
-355 -122 0
-355 -46 0
-355 189 0
-355 117 0
355 -105 122 46 -189 -117 0
351 352 353 354 355 0
-356 142 0
-356 109 0
-356 106 0
-356 46 0
-356 -96 0
356 -142 -109 -106 -46 96 0
-357 55 0
-357 -137 0
-357 -126 0
-357 132 0
-357 -182 0
357 -55 137 126 -132 182 0
-358 126 0
-358 162 0
-358 -135 0
-358 -160 0
-358 64 0
358 -126 -162 135 160 -64 0
-359 77 0
-359 116 0
-359 -82 0
-359 22 0
-359 -19 0
359 -77 -116 82 -22 19 0
-360 -58 0
-360 -184 0
-360 -76 0
-360 178 0
-360 -70 0
360 58 184 76 -178 70 0
356 357 358 359 360 0
-361 76 0
-361 -132 0
-361 150 0
-361 -100 0
-361 -30 0
361 -76 132 -150 100 30 0
-362 81 0
-362 -84 0
-362 -142 0
-362 143 0
-362 124 0
362 -81 84 142 -143 -124 0
-363 -22 0
-363 -94 0
-363 -88 0
-363 -116 0
-363 117 0
363 22 94 88 116 -117 0
-364 -45 0
-364 -127 0
-364 -59 0
-364 -182 0
-364 164 0
364 45 127 59 182 -164 0
-365 164 0
-365 -165 0
-365 -147 0
-365 64 0
-365 11 0
365 -164 165 147 -64 -11 0
361 362 363 364 365 0
-366 23 0
-366 179 0
-366 135 0
-366 -34 0
-366 -164 0
366 -23 -179 -135 34 164 0
-367 163 0
-367 -159 0
-367 5 0
-367 43 0
-367 -35 0
367 -163 159 -5 -43 35 0
-368 -55 0
-368 184 0
-368 -7 0
-368 171 0
-368 83 0
368 55 -184 7 -171 -83 0
-369 63 0
-369 -160 0
-369 178 0
-369 185 0
-369 -94 0
369 -63 160 -178 -185 94 0
-370 163 0
-370 -80 0
-370 -128 0
-370 -9 0
-370 159 0
370 -163 80 128 9 -159 0
366 367 368 369 370 0
-371 111 0
-371 -150 0
-371 79 0
-371 -31 0
-371 169 0
371 -111 150 -79 31 -169 0
-372 52 0
-372 -16 0
-372 -134 0
-372 -71 0
-372 -74 0
372 -52 16 134 71 74 0
-373 -70 0
-373 117 0
-373 -36 0
-373 -2 0
-373 -88 0
373 70 -117 36 2 88 0
-374 -177 0
-374 -161 0
-374 70 0
-374 -60 0
-374 -49 0
374 177 161 -70 60 49 0
-375 -97 0
-375 -115 0
-375 -171 0
-375 15 0
-375 -117 0
375 97 115 171 -15 117 0
371 372 373 374 375 0
-376 104 0
-376 58 0
-376 115 0
-376 45 0
-376 48 0
376 -104 -58 -115 -45 -48 0
-377 -76 0
-377 40 0
-377 -135 0
-377 -83 0
-377 133 0
377 76 -40 135 83 -133 0
-378 -165 0
-378 116 0
-378 -187 0
-378 -177 0
-378 -147 0
378 165 -116 187 177 147 0
-379 126 0
-379 85 0
-379 151 0
-379 112 0
-379 -132 0
379 -126 -85 -151 -112 132 0
-380 181 0
-380 -153 0
-380 167 0
-380 52 0
-380 -79 0
380 -181 153 -167 -52 79 0
376 377 378 379 380 0
-381 -148 0
-381 -18 0
-381 -49 0
-381 -100 0
-381 129 0
381 148 18 49 100 -129 0
-382 -159 0
-382 116 0
-382 -184 0
-382 91 0
-382 21 0
382 159 -116 184 -91 -21 0
-383 -154 0
-383 -33 0
-383 -134 0
-383 121 0
-383 -151 0
383 154 33 134 -121 151 0
-384 -53 0
-384 26 0
-384 179 0
-384 -149 0
-384 90 0
384 53 -26 -179 149 -90 0
-385 -145 0
-385 57 0
-385 160 0
-385 45 0
-385 -150 0
385 145 -57 -160 -45 150 0
381 382 383 384 385 0
-386 146 0
-386 9 0
-386 -116 0
-386 -102 0
-386 -105 0
386 -146 -9 116 102 105 0
-387 117 0
-387 -78 0
-387 -54 0
-387 -122 0
-387 81 0
387 -117 78 54 122 -81 0
-388 10 0
-388 91 0
-388 110 0
-388 48 0
-388 27 0
388 -10 -91 -110 -48 -27 0
-389 81 0
-389 11 0
-389 -186 0
-389 -101 0
-389 119 0
389 -81 -11 186 101 -119 0
-390 -55 0
-390 -13 0
-390 76 0
-390 146 0
-390 -64 0
390 55 13 -76 -146 64 0
386 387 388 389 390 0
-391 -31 0
-391 151 0
-391 -39 0
-391 18 0
-391 27 0
391 31 -151 39 -18 -27 0
-392 -141 0
-392 185 0
-392 -81 0
-392 -137 0
-392 110 0
392 141 -185 81 137 -110 0
-393 158 0
-393 43 0
-393 -59 0
-393 -24 0
-393 -139 0
393 -158 -43 59 24 139 0
-394 -87 0
-394 -151 0
-394 -84 0
-394 -154 0
-394 -27 0
394 87 151 84 154 27 0
-395 183 0
-395 -99 0
-395 -160 0
-395 -94 0
-395 -122 0
395 -183 99 160 94 122 0
391 392 393 394 395 0
-396 145 0
-396 -94 0
-396 -189 0
-396 -107 0
-396 96 0
396 -145 94 189 107 -96 0
-397 125 0
-397 27 0
-397 17 0
-397 16 0
-397 91 0
397 -125 -27 -17 -16 -91 0
-398 186 0
-398 -140 0
-398 -132 0
-398 145 0
-398 -180 0
398 -186 140 132 -145 180 0
-399 -180 0
-399 -17 0
-399 145 0
-399 -116 0
-399 91 0
399 180 17 -145 116 -91 0
-400 163 0
-400 -85 0
-400 42 0
-400 -71 0
-400 9 0
400 -163 85 -42 71 -9 0
396 397 398 399 400 0
-401 87 0
-401 -50 0
-401 -17 0
-401 172 0
-401 -77 0
401 -87 50 17 -172 77 0
-402 35 0
-402 -91 0
-402 145 0
-402 -110 0
-402 76 0
402 -35 91 -145 110 -76 0
-403 85 0
-403 -150 0
-403 -119 0
-403 -24 0
-403 184 0
403 -85 150 119 24 -184 0
-404 8 0
-404 -157 0
-404 -171 0
-404 182 0
-404 -65 0
404 -8 157 171 -182 65 0
-405 -20 0
-405 -74 0
-405 -15 0
-405 117 0
-405 28 0
405 20 74 15 -117 -28 0
401 402 403 404 405 0
-406 48 0
-406 -12 0
-406 -121 0
-406 89 0
-406 -106 0
406 -48 12 121 -89 106 0
-407 -63 0
-407 26 0
-407 97 0
-407 124 0
-407 -103 0
407 63 -26 -97 -124 103 0
-408 168 0
-408 -45 0
-408 -43 0
-408 22 0
-408 -113 0
408 -168 45 43 -22 113 0
-409 -28 0
-409 137 0
-409 171 0
-409 -111 0
-409 27 0
409 28 -137 -171 111 -27 0
-410 -184 0
-410 -82 0
-410 -70 0
-410 98 0
-410 163 0
410 184 82 70 -98 -163 0
406 407 408 409 410 0
-411 26 0
-411 34 0
-411 135 0
-411 -110 0
-411 -171 0
411 -26 -34 -135 110 171 0
-412 185 0
-412 32 0
-412 27 0
-412 -15 0
-412 -137 0
412 -185 -32 -27 15 137 0
-413 160 0
-413 -151 0
-413 139 0
-413 53 0
-413 64 0
413 -160 151 -139 -53 -64 0
-414 -82 0
-414 7 0
-414 15 0
-414 116 0
-414 25 0
414 82 -7 -15 -116 -25 0
-415 -184 0
-415 -120 0
-415 15 0
-415 152 0
-415 -125 0
415 184 120 -15 -152 125 0
411 412 413 414 415 0
-416 -156 0
-416 187 0
-416 8 0
-416 16 0
-416 -17 0
416 156 -187 -8 -16 17 0
-417 -170 0
-417 40 0
-417 129 0
-417 -131 0
-417 165 0
417 170 -40 -129 131 -165 0
-418 98 0
-418 41 0
-418 -89 0
-418 -36 0
-418 65 0
418 -98 -41 89 36 -65 0
-419 -136 0
-419 -105 0
-419 -149 0
-419 22 0
-419 -19 0
419 136 105 149 -22 19 0
-420 127 0
-420 -3 0
-420 -57 0
-420 135 0
-420 -46 0
420 -127 3 57 -135 46 0
416 417 418 419 420 0
-421 -127 0
-421 -118 0
-421 -143 0
-421 -104 0
-421 -27 0
421 127 118 143 104 27 0
-422 -26 0
-422 141 0
-422 -73 0
-422 -84 0
-422 -97 0
422 26 -141 73 84 97 0
-423 -1 0
-423 -150 0
-423 -31 0
-423 -79 0
-423 23 0
423 1 150 31 79 -23 0
-424 81 0
-424 80 0
-424 132 0
-424 -66 0
-424 -47 0
424 -81 -80 -132 66 47 0
-425 -138 0
-425 -73 0
-425 -160 0
-425 187 0
-425 -50 0
425 138 73 160 -187 50 0
421 422 423 424 425 0
-426 32 0
-426 -180 0
-426 131 0
-426 -36 0
-426 -42 0
426 -32 180 -131 36 42 0
-427 95 0
-427 53 0
-427 71 0
-427 76 0
-427 -178 0
427 -95 -53 -71 -76 178 0
-428 128 0
-428 -66 0
-428 42 0
-428 -138 0
-428 151 0
428 -128 66 -42 138 -151 0
-429 146 0
-429 57 0
-429 44 0
-429 -139 0
-429 -24 0
429 -146 -57 -44 139 24 0
-430 114 0
-430 -99 0
-430 -80 0
-430 153 0
-430 -151 0
430 -114 99 80 -153 151 0
426 427 428 429 430 0
